p cnf 340 1320
e 1 2 3 4 5 6 7 8 9 10 11 12 13 14 15 16 17 18 19 20 21 22 23 24 25 26 27 28 29 30 31 32 33 34 35 36 37 38 0
a 39 40 41 42 0
e 43 44 45 46 47 48 49 50 51 52 53 54 55 56 57 58 59 60 61 62 63 64 65 66 67 68 69 70 71 72 73 74 75 76 77 78 79 0
a 80 81 82 83 0
e 84 85 86 87 88 89 90 91 92 93 94 95 96 97 98 99 100 101 102 103 104 105 106 107 108 109 110 111 112 113 114 115 116 117 118 119 120 0
a 121 122 123 124 0
e 125 126 127 128 129 130 131 132 133 134 135 136 137 138 139 140 141 142 143 144 145 146 147 148 149 150 151 152 153 154 155 156 157 158 159 160 161 0
a 162 163 164 165 0
e 166 167 168 169 170 171 172 173 174 175 176 177 178 179 180 181 182 183 184 185 186 187 188 189 190 191 192 193 194 195 196 197 198 199 200 201 202 0
a 203 204 205 206 0
e 207 208 209 210 211 212 213 214 215 216 217 218 219 220 221 222 223 224 225 226 227 228 229 230 231 232 233 234 235 236 237 238 239 240 241 242 243 0
a 244 245 246 247 0
e 248 249 250 251 252 253 254 255 256 257 258 259 260 261 262 263 264 265 266 267 268 269 270 271 272 273 274 275 276 277 278 279 280 281 282 283 284 0
a 285 286 287 288 0
e 289 290 291 292 293 294 295 296 297 298 299 300 301 302 303 304 305 306 307 308 309 310 311 312 313 314 315 316 317 318 319 320 321 322 323 324 325 326 327 328 329 330 331 332 333 334 335 336 337 338 339 340 0
-38 6 39 40 41 42 48 0
-39 -38 8 40 41 42 50 0
-40 -38 10 39 41 42 52 0
-40 -39 -38 12 41 42 54 0
-41 -38 14 39 40 42 56 0
-41 -39 -38 16 40 42 58 0
-41 -40 -38 18 39 42 60 0
-41 -40 -39 -38 20 42 62 0
-42 -38 22 39 40 41 64 0
-42 -39 -38 24 40 41 66 0
-42 -40 -38 26 39 41 68 0
-42 -40 -39 -38 28 41 70 0
-42 -41 -38 30 39 40 72 0
-42 -41 -39 -38 32 40 74 0
-42 -41 -40 -38 34 39 76 0
-42 -41 -40 -39 -38 36 78 0
-79 47 80 81 82 83 89 0
-80 -79 49 81 82 83 91 0
-81 -79 51 80 82 83 93 0
-81 -80 -79 53 82 83 95 0
-82 -79 55 80 81 83 97 0
-82 -80 -79 57 81 83 99 0
-82 -81 -79 59 80 83 101 0
-82 -81 -80 -79 61 83 103 0
-83 -79 63 80 81 82 105 0
-83 -80 -79 65 81 82 107 0
-83 -81 -79 67 80 82 109 0
-83 -81 -80 -79 69 82 111 0
-83 -82 -79 71 80 81 113 0
-83 -82 -80 -79 73 81 115 0
-83 -82 -81 -79 75 80 117 0
-83 -82 -81 -80 -79 77 119 0
-120 88 121 122 123 124 130 0
-121 -120 90 122 123 124 132 0
-122 -120 92 121 123 124 134 0
-122 -121 -120 94 123 124 136 0
-123 -120 96 121 122 124 138 0
-123 -121 -120 98 122 124 140 0
-123 -122 -120 100 121 124 142 0
-123 -122 -121 -120 102 124 144 0
-124 -120 104 121 122 123 146 0
-124 -121 -120 106 122 123 148 0
-124 -122 -120 108 121 123 150 0
-124 -122 -121 -120 110 123 152 0
-124 -123 -120 112 121 122 154 0
-124 -123 -121 -120 114 122 156 0
-124 -123 -122 -120 116 121 158 0
-124 -123 -122 -121 -120 118 160 0
-161 129 162 163 164 165 171 0
-162 -161 131 163 164 165 173 0
-163 -161 133 162 164 165 175 0
-163 -162 -161 135 164 165 177 0
-164 -161 137 162 163 165 179 0
-164 -162 -161 139 163 165 181 0
-164 -163 -161 141 162 165 183 0
-164 -163 -162 -161 143 165 185 0
-165 -161 145 162 163 164 187 0
-165 -162 -161 147 163 164 189 0
-165 -163 -161 149 162 164 191 0
-165 -163 -162 -161 151 164 193 0
-165 -164 -161 153 162 163 195 0
-165 -164 -162 -161 155 163 197 0
-165 -164 -163 -161 157 162 199 0
-165 -164 -163 -162 -161 159 201 0
-202 170 203 204 205 206 212 0
-203 -202 172 204 205 206 214 0
-204 -202 174 203 205 206 216 0
-204 -203 -202 176 205 206 218 0
-205 -202 178 203 204 206 220 0
-205 -203 -202 180 204 206 222 0
-205 -204 -202 182 203 206 224 0
-205 -204 -203 -202 184 206 226 0
-206 -202 186 203 204 205 228 0
-206 -203 -202 188 204 205 230 0
-206 -204 -202 190 203 205 232 0
-206 -204 -203 -202 192 205 234 0
-206 -205 -202 194 203 204 236 0
-206 -205 -203 -202 196 204 238 0
-206 -205 -204 -202 198 203 240 0
-206 -205 -204 -203 -202 200 242 0
-243 211 244 245 246 247 253 0
-244 -243 213 245 246 247 255 0
-245 -243 215 244 246 247 257 0
-245 -244 -243 217 246 247 259 0
-246 -243 219 244 245 247 261 0
-246 -244 -243 221 245 247 263 0
-246 -245 -243 223 244 247 265 0
-246 -245 -244 -243 225 247 267 0
-247 -243 227 244 245 246 269 0
-247 -244 -243 229 245 246 271 0
-247 -245 -243 231 244 246 273 0
-247 -245 -244 -243 233 246 275 0
-247 -246 -243 235 244 245 277 0
-247 -246 -244 -243 237 245 279 0
-247 -246 -245 -243 239 244 281 0
-247 -246 -245 -244 -243 241 283 0
-284 252 285 286 287 288 294 0
-285 -284 254 286 287 288 296 0
-286 -284 256 285 287 288 298 0
-286 -285 -284 258 287 288 300 0
-287 -284 260 285 286 288 302 0
-287 -285 -284 262 286 288 304 0
-287 -286 -284 264 285 288 306 0
-287 -286 -285 -284 266 288 308 0
-288 -284 268 285 286 287 310 0
-288 -285 -284 270 286 287 312 0
-288 -286 -284 272 285 287 314 0
-288 -286 -285 -284 274 287 316 0
-288 -287 -284 276 285 286 318 0
-288 -287 -285 -284 278 286 320 0
-288 -287 -286 -284 280 285 322 0
-288 -287 -286 -285 -284 282 324 0
-6 -2 -1 0
-6 -3 -1 0
-6 -4 -1 0
-6 -5 -1 0
-8 -1 2 0
-8 -3 -1 0
-8 -4 -1 0
-8 -5 -1 0
-10 -2 -1 0
-10 -1 3 0
-10 -4 -1 0
-10 -5 -1 0
-12 -1 2 0
-12 -1 3 0
-12 -4 -1 0
-12 -5 -1 0
-14 -2 -1 0
-14 -3 -1 0
-14 -1 4 0
-14 -5 -1 0
-16 -1 2 0
-16 -3 -1 0
-16 -1 4 0
-16 -5 -1 0
-18 -2 -1 0
-18 -1 3 0
-18 -1 4 0
-18 -5 -1 0
-20 -1 2 0
-20 -1 3 0
-20 -1 4 0
-20 -5 -1 0
-22 -2 -1 0
-22 -3 -1 0
-22 -4 -1 0
-22 -1 5 0
-24 -1 2 0
-24 -3 -1 0
-24 -4 -1 0
-24 -1 5 0
-26 -2 -1 0
-26 -1 3 0
-26 -4 -1 0
-26 -1 5 0
-28 -1 2 0
-28 -1 3 0
-28 -4 -1 0
-28 -1 5 0
-30 -2 -1 0
-30 -3 -1 0
-30 -1 4 0
-30 -1 5 0
-32 -1 2 0
-32 -3 -1 0
-32 -1 4 0
-32 -1 5 0
-34 -2 -1 0
-34 -1 3 0
-34 -1 4 0
-34 -1 5 0
-36 -1 2 0
-36 -1 3 0
-36 -1 4 0
-36 -1 5 0
-47 -43 -38 6 0
-47 -44 -38 6 0
-47 -45 -38 6 0
-47 -46 -38 6 0
-49 -38 8 43 0
-49 -44 -38 8 0
-49 -45 -38 8 0
-49 -46 -38 8 0
-51 -43 -38 10 0
-51 -38 10 44 0
-51 -45 -38 10 0
-51 -46 -38 10 0
-53 -38 12 43 0
-53 -38 12 44 0
-53 -45 -38 12 0
-53 -46 -38 12 0
-55 -43 -38 14 0
-55 -44 -38 14 0
-55 -38 14 45 0
-55 -46 -38 14 0
-57 -38 16 43 0
-57 -44 -38 16 0
-57 -38 16 45 0
-57 -46 -38 16 0
-59 -43 -38 18 0
-59 -38 18 44 0
-59 -38 18 45 0
-59 -46 -38 18 0
-61 -38 20 43 0
-61 -38 20 44 0
-61 -38 20 45 0
-61 -46 -38 20 0
-63 -43 -38 22 0
-63 -44 -38 22 0
-63 -45 -38 22 0
-63 -38 22 46 0
-65 -38 24 43 0
-65 -44 -38 24 0
-65 -45 -38 24 0
-65 -38 24 46 0
-67 -43 -38 26 0
-67 -38 26 44 0
-67 -45 -38 26 0
-67 -38 26 46 0
-69 -38 28 43 0
-69 -38 28 44 0
-69 -45 -38 28 0
-69 -38 28 46 0
-71 -43 -38 30 0
-71 -44 -38 30 0
-71 -38 30 45 0
-71 -38 30 46 0
-73 -38 32 43 0
-73 -44 -38 32 0
-73 -38 32 45 0
-73 -38 32 46 0
-75 -43 -38 34 0
-75 -38 34 44 0
-75 -38 34 45 0
-75 -38 34 46 0
-77 -38 36 43 0
-77 -38 36 44 0
-77 -38 36 45 0
-77 -38 36 46 0
-88 -84 -79 47 0
-88 -85 -79 47 0
-88 -86 -79 47 0
-88 -87 -79 47 0
-90 -79 49 84 0
-90 -85 -79 49 0
-90 -86 -79 49 0
-90 -87 -79 49 0
-92 -84 -79 51 0
-92 -79 51 85 0
-92 -86 -79 51 0
-92 -87 -79 51 0
-94 -79 53 84 0
-94 -79 53 85 0
-94 -86 -79 53 0
-94 -87 -79 53 0
-96 -84 -79 55 0
-96 -85 -79 55 0
-96 -79 55 86 0
-96 -87 -79 55 0
-98 -79 57 84 0
-98 -85 -79 57 0
-98 -79 57 86 0
-98 -87 -79 57 0
-100 -84 -79 59 0
-100 -79 59 85 0
-100 -79 59 86 0
-100 -87 -79 59 0
-102 -79 61 84 0
-102 -79 61 85 0
-102 -79 61 86 0
-102 -87 -79 61 0
-104 -84 -79 63 0
-104 -85 -79 63 0
-104 -86 -79 63 0
-104 -79 63 87 0
-106 -79 65 84 0
-106 -85 -79 65 0
-106 -86 -79 65 0
-106 -79 65 87 0
-108 -84 -79 67 0
-108 -79 67 85 0
-108 -86 -79 67 0
-108 -79 67 87 0
-110 -79 69 84 0
-110 -79 69 85 0
-110 -86 -79 69 0
-110 -79 69 87 0
-112 -84 -79 71 0
-112 -85 -79 71 0
-112 -79 71 86 0
-112 -79 71 87 0
-114 -79 73 84 0
-114 -85 -79 73 0
-114 -79 73 86 0
-114 -79 73 87 0
-116 -84 -79 75 0
-116 -79 75 85 0
-116 -79 75 86 0
-116 -79 75 87 0
-118 -79 77 84 0
-118 -79 77 85 0
-118 -79 77 86 0
-118 -79 77 87 0
-129 -125 -120 88 0
-129 -126 -120 88 0
-129 -127 -120 88 0
-129 -128 -120 88 0
-131 -120 90 125 0
-131 -126 -120 90 0
-131 -127 -120 90 0
-131 -128 -120 90 0
-133 -125 -120 92 0
-133 -120 92 126 0
-133 -127 -120 92 0
-133 -128 -120 92 0
-135 -120 94 125 0
-135 -120 94 126 0
-135 -127 -120 94 0
-135 -128 -120 94 0
-137 -125 -120 96 0
-137 -126 -120 96 0
-137 -120 96 127 0
-137 -128 -120 96 0
-139 -120 98 125 0
-139 -126 -120 98 0
-139 -120 98 127 0
-139 -128 -120 98 0
-141 -125 -120 100 0
-141 -120 100 126 0
-141 -120 100 127 0
-141 -128 -120 100 0
-143 -120 102 125 0
-143 -120 102 126 0
-143 -120 102 127 0
-143 -128 -120 102 0
-145 -125 -120 104 0
-145 -126 -120 104 0
-145 -127 -120 104 0
-145 -120 104 128 0
-147 -120 106 125 0
-147 -126 -120 106 0
-147 -127 -120 106 0
-147 -120 106 128 0
-149 -125 -120 108 0
-149 -120 108 126 0
-149 -127 -120 108 0
-149 -120 108 128 0
-151 -120 110 125 0
-151 -120 110 126 0
-151 -127 -120 110 0
-151 -120 110 128 0
-153 -125 -120 112 0
-153 -126 -120 112 0
-153 -120 112 127 0
-153 -120 112 128 0
-155 -120 114 125 0
-155 -126 -120 114 0
-155 -120 114 127 0
-155 -120 114 128 0
-157 -125 -120 116 0
-157 -120 116 126 0
-157 -120 116 127 0
-157 -120 116 128 0
-159 -120 118 125 0
-159 -120 118 126 0
-159 -120 118 127 0
-159 -120 118 128 0
-170 -166 -161 129 0
-170 -167 -161 129 0
-170 -168 -161 129 0
-170 -169 -161 129 0
-172 -161 131 166 0
-172 -167 -161 131 0
-172 -168 -161 131 0
-172 -169 -161 131 0
-174 -166 -161 133 0
-174 -161 133 167 0
-174 -168 -161 133 0
-174 -169 -161 133 0
-176 -161 135 166 0
-176 -161 135 167 0
-176 -168 -161 135 0
-176 -169 -161 135 0
-178 -166 -161 137 0
-178 -167 -161 137 0
-178 -161 137 168 0
-178 -169 -161 137 0
-180 -161 139 166 0
-180 -167 -161 139 0
-180 -161 139 168 0
-180 -169 -161 139 0
-182 -166 -161 141 0
-182 -161 141 167 0
-182 -161 141 168 0
-182 -169 -161 141 0
-184 -161 143 166 0
-184 -161 143 167 0
-184 -161 143 168 0
-184 -169 -161 143 0
-186 -166 -161 145 0
-186 -167 -161 145 0
-186 -168 -161 145 0
-186 -161 145 169 0
-188 -161 147 166 0
-188 -167 -161 147 0
-188 -168 -161 147 0
-188 -161 147 169 0
-190 -166 -161 149 0
-190 -161 149 167 0
-190 -168 -161 149 0
-190 -161 149 169 0
-192 -161 151 166 0
-192 -161 151 167 0
-192 -168 -161 151 0
-192 -161 151 169 0
-194 -166 -161 153 0
-194 -167 -161 153 0
-194 -161 153 168 0
-194 -161 153 169 0
-196 -161 155 166 0
-196 -167 -161 155 0
-196 -161 155 168 0
-196 -161 155 169 0
-198 -166 -161 157 0
-198 -161 157 167 0
-198 -161 157 168 0
-198 -161 157 169 0
-200 -161 159 166 0
-200 -161 159 167 0
-200 -161 159 168 0
-200 -161 159 169 0
-211 -207 -202 170 0
-211 -208 -202 170 0
-211 -209 -202 170 0
-211 -210 -202 170 0
-213 -202 172 207 0
-213 -208 -202 172 0
-213 -209 -202 172 0
-213 -210 -202 172 0
-215 -207 -202 174 0
-215 -202 174 208 0
-215 -209 -202 174 0
-215 -210 -202 174 0
-217 -202 176 207 0
-217 -202 176 208 0
-217 -209 -202 176 0
-217 -210 -202 176 0
-219 -207 -202 178 0
-219 -208 -202 178 0
-219 -202 178 209 0
-219 -210 -202 178 0
-221 -202 180 207 0
-221 -208 -202 180 0
-221 -202 180 209 0
-221 -210 -202 180 0
-223 -207 -202 182 0
-223 -202 182 208 0
-223 -202 182 209 0
-223 -210 -202 182 0
-225 -202 184 207 0
-225 -202 184 208 0
-225 -202 184 209 0
-225 -210 -202 184 0
-227 -207 -202 186 0
-227 -208 -202 186 0
-227 -209 -202 186 0
-227 -202 186 210 0
-229 -202 188 207 0
-229 -208 -202 188 0
-229 -209 -202 188 0
-229 -202 188 210 0
-231 -207 -202 190 0
-231 -202 190 208 0
-231 -209 -202 190 0
-231 -202 190 210 0
-233 -202 192 207 0
-233 -202 192 208 0
-233 -209 -202 192 0
-233 -202 192 210 0
-235 -207 -202 194 0
-235 -208 -202 194 0
-235 -202 194 209 0
-235 -202 194 210 0
-237 -202 196 207 0
-237 -208 -202 196 0
-237 -202 196 209 0
-237 -202 196 210 0
-239 -207 -202 198 0
-239 -202 198 208 0
-239 -202 198 209 0
-239 -202 198 210 0
-241 -202 200 207 0
-241 -202 200 208 0
-241 -202 200 209 0
-241 -202 200 210 0
-252 -248 -243 211 0
-252 -249 -243 211 0
-252 -250 -243 211 0
-252 -251 -243 211 0
-254 -243 213 248 0
-254 -249 -243 213 0
-254 -250 -243 213 0
-254 -251 -243 213 0
-256 -248 -243 215 0
-256 -243 215 249 0
-256 -250 -243 215 0
-256 -251 -243 215 0
-258 -243 217 248 0
-258 -243 217 249 0
-258 -250 -243 217 0
-258 -251 -243 217 0
-260 -248 -243 219 0
-260 -249 -243 219 0
-260 -243 219 250 0
-260 -251 -243 219 0
-262 -243 221 248 0
-262 -249 -243 221 0
-262 -243 221 250 0
-262 -251 -243 221 0
-264 -248 -243 223 0
-264 -243 223 249 0
-264 -243 223 250 0
-264 -251 -243 223 0
-266 -243 225 248 0
-266 -243 225 249 0
-266 -243 225 250 0
-266 -251 -243 225 0
-268 -248 -243 227 0
-268 -249 -243 227 0
-268 -250 -243 227 0
-268 -243 227 251 0
-270 -243 229 248 0
-270 -249 -243 229 0
-270 -250 -243 229 0
-270 -243 229 251 0
-272 -248 -243 231 0
-272 -243 231 249 0
-272 -250 -243 231 0
-272 -243 231 251 0
-274 -243 233 248 0
-274 -243 233 249 0
-274 -250 -243 233 0
-274 -243 233 251 0
-276 -248 -243 235 0
-276 -249 -243 235 0
-276 -243 235 250 0
-276 -243 235 251 0
-278 -243 237 248 0
-278 -249 -243 237 0
-278 -243 237 250 0
-278 -243 237 251 0
-280 -248 -243 239 0
-280 -243 239 249 0
-280 -243 239 250 0
-280 -243 239 251 0
-282 -243 241 248 0
-282 -243 241 249 0
-282 -243 241 250 0
-282 -243 241 251 0
-293 -289 -284 252 0
-293 -290 -284 252 0
-293 -291 -284 252 0
-293 -292 -284 252 0
-295 -284 254 289 0
-295 -290 -284 254 0
-295 -291 -284 254 0
-295 -292 -284 254 0
-297 -289 -284 256 0
-297 -284 256 290 0
-297 -291 -284 256 0
-297 -292 -284 256 0
-299 -284 258 289 0
-299 -284 258 290 0
-299 -291 -284 258 0
-299 -292 -284 258 0
-301 -289 -284 260 0
-301 -290 -284 260 0
-301 -284 260 291 0
-301 -292 -284 260 0
-303 -284 262 289 0
-303 -290 -284 262 0
-303 -284 262 291 0
-303 -292 -284 262 0
-305 -289 -284 264 0
-305 -284 264 290 0
-305 -284 264 291 0
-305 -292 -284 264 0
-307 -284 266 289 0
-307 -284 266 290 0
-307 -284 266 291 0
-307 -292 -284 266 0
-309 -289 -284 268 0
-309 -290 -284 268 0
-309 -291 -284 268 0
-309 -284 268 292 0
-311 -284 270 289 0
-311 -290 -284 270 0
-311 -291 -284 270 0
-311 -284 270 292 0
-313 -289 -284 272 0
-313 -284 272 290 0
-313 -291 -284 272 0
-313 -284 272 292 0
-315 -284 274 289 0
-315 -284 274 290 0
-315 -291 -284 274 0
-315 -284 274 292 0
-317 -289 -284 276 0
-317 -290 -284 276 0
-317 -284 276 291 0
-317 -284 276 292 0
-319 -284 278 289 0
-319 -290 -284 278 0
-319 -284 278 291 0
-319 -284 278 292 0
-321 -289 -284 280 0
-321 -284 280 290 0
-321 -284 280 291 0
-321 -284 280 292 0
-323 -284 282 289 0
-323 -284 282 290 0
-323 -284 282 291 0
-323 -284 282 292 0
-7 -6 0
-48 -47 0
-89 -88 0
-130 -129 0
-171 -170 0
-212 -211 0
-253 -252 0
-294 -293 0
-9 -8 0
-50 -49 0
-91 -90 0
-132 -131 0
-173 -172 0
-214 -213 0
-255 -254 0
-296 -295 0
-11 -10 0
-52 -51 0
-93 -92 0
-134 -133 0
-175 -174 0
-216 -215 0
-257 -256 0
-298 -297 0
-13 -12 0
-54 -53 0
-95 -94 0
-136 -135 0
-177 -176 0
-218 -217 0
-259 -258 0
-300 -299 0
-15 -14 0
-56 -55 0
-97 -96 0
-138 -137 0
-179 -178 0
-220 -219 0
-261 -260 0
-302 -301 0
-17 -16 0
-58 -57 0
-99 -98 0
-140 -139 0
-181 -180 0
-222 -221 0
-263 -262 0
-304 -303 0
-19 -18 0
-60 -59 0
-101 -100 0
-142 -141 0
-183 -182 0
-224 -223 0
-265 -264 0
-306 -305 0
-21 -20 0
-62 -61 0
-103 -102 0
-144 -143 0
-185 -184 0
-226 -225 0
-267 -266 0
-308 -307 0
-23 -22 0
-64 -63 0
-105 -104 0
-146 -145 0
-187 -186 0
-228 -227 0
-269 -268 0
-310 -309 0
-25 -24 0
-66 -65 0
-107 -106 0
-148 -147 0
-189 -188 0
-230 -229 0
-271 -270 0
-312 -311 0
-27 -26 0
-68 -67 0
-109 -108 0
-150 -149 0
-191 -190 0
-232 -231 0
-273 -272 0
-314 -313 0
-29 -28 0
-70 -69 0
-111 -110 0
-152 -151 0
-193 -192 0
-234 -233 0
-275 -274 0
-316 -315 0
-31 -30 0
-72 -71 0
-113 -112 0
-154 -153 0
-195 -194 0
-236 -235 0
-277 -276 0
-318 -317 0
-33 -32 0
-74 -73 0
-115 -114 0
-156 -155 0
-197 -196 0
-238 -237 0
-279 -278 0
-320 -319 0
-35 -34 0
-76 -75 0
-117 -116 0
-158 -157 0
-199 -198 0
-240 -239 0
-281 -280 0
-322 -321 0
-37 -36 0
-78 -77 0
-119 -118 0
-160 -159 0
-201 -200 0
-242 -241 0
-283 -282 0
-324 -323 0
-38 1 0
-79 38 0
-120 79 0
-161 120 0
-202 161 0
-243 202 0
-284 243 0
-6 47 0
-7 48 0
-8 49 0
-9 50 0
-10 51 0
-11 52 0
-12 53 0
-13 54 0
-14 55 0
-15 56 0
-16 57 0
-17 58 0
-18 59 0
-19 60 0
-20 61 0
-21 62 0
-22 63 0
-23 64 0
-24 65 0
-25 66 0
-26 67 0
-27 68 0
-28 69 0
-29 70 0
-30 71 0
-31 72 0
-32 73 0
-33 74 0
-34 75 0
-35 76 0
-36 77 0
-37 78 0
-47 88 0
-48 89 0
-49 90 0
-50 91 0
-51 92 0
-52 93 0
-53 94 0
-54 95 0
-55 96 0
-56 97 0
-57 98 0
-58 99 0
-59 100 0
-60 101 0
-61 102 0
-62 103 0
-63 104 0
-64 105 0
-65 106 0
-66 107 0
-67 108 0
-68 109 0
-69 110 0
-70 111 0
-71 112 0
-72 113 0
-73 114 0
-74 115 0
-75 116 0
-76 117 0
-77 118 0
-78 119 0
-88 129 0
-89 130 0
-90 131 0
-91 132 0
-92 133 0
-93 134 0
-94 135 0
-95 136 0
-96 137 0
-97 138 0
-98 139 0
-99 140 0
-100 141 0
-101 142 0
-102 143 0
-103 144 0
-104 145 0
-105 146 0
-106 147 0
-107 148 0
-108 149 0
-109 150 0
-110 151 0
-111 152 0
-112 153 0
-113 154 0
-114 155 0
-115 156 0
-116 157 0
-117 158 0
-118 159 0
-119 160 0
-129 170 0
-130 171 0
-131 172 0
-132 173 0
-133 174 0
-134 175 0
-135 176 0
-136 177 0
-137 178 0
-138 179 0
-139 180 0
-140 181 0
-141 182 0
-142 183 0
-143 184 0
-144 185 0
-145 186 0
-146 187 0
-147 188 0
-148 189 0
-149 190 0
-150 191 0
-151 192 0
-152 193 0
-153 194 0
-154 195 0
-155 196 0
-156 197 0
-157 198 0
-158 199 0
-159 200 0
-160 201 0
-170 211 0
-171 212 0
-172 213 0
-173 214 0
-174 215 0
-175 216 0
-176 217 0
-177 218 0
-178 219 0
-179 220 0
-180 221 0
-181 222 0
-182 223 0
-183 224 0
-184 225 0
-185 226 0
-186 227 0
-187 228 0
-188 229 0
-189 230 0
-190 231 0
-191 232 0
-192 233 0
-193 234 0
-194 235 0
-195 236 0
-196 237 0
-197 238 0
-198 239 0
-199 240 0
-200 241 0
-201 242 0
-211 252 0
-212 253 0
-213 254 0
-214 255 0
-215 256 0
-216 257 0
-217 258 0
-218 259 0
-219 260 0
-220 261 0
-221 262 0
-222 263 0
-223 264 0
-224 265 0
-225 266 0
-226 267 0
-227 268 0
-228 269 0
-229 270 0
-230 271 0
-231 272 0
-232 273 0
-233 274 0
-234 275 0
-235 276 0
-236 277 0
-237 278 0
-238 279 0
-239 280 0
-240 281 0
-241 282 0
-242 283 0
-252 293 0
-253 294 0
-254 295 0
-255 296 0
-256 297 0
-257 298 0
-258 299 0
-259 300 0
-260 301 0
-261 302 0
-262 303 0
-263 304 0
-264 305 0
-265 306 0
-266 307 0
-267 308 0
-268 309 0
-269 310 0
-270 311 0
-271 312 0
-272 313 0
-273 314 0
-274 315 0
-275 316 0
-276 317 0
-277 318 0
-278 319 0
-279 320 0
-280 321 0
-281 322 0
-282 323 0
-283 324 0
-6 1 0
-7 1 0
-8 1 0
-9 1 0
-10 1 0
-11 1 0
-12 1 0
-13 1 0
-14 1 0
-15 1 0
-16 1 0
-17 1 0
-18 1 0
-19 1 0
-20 1 0
-21 1 0
-22 1 0
-23 1 0
-24 1 0
-25 1 0
-26 1 0
-27 1 0
-28 1 0
-29 1 0
-30 1 0
-31 1 0
-32 1 0
-33 1 0
-34 1 0
-35 1 0
-36 1 0
-37 1 0
-47 6 38 0
-48 7 38 0
-49 8 38 0
-50 9 38 0
-51 10 38 0
-52 11 38 0
-53 12 38 0
-54 13 38 0
-55 14 38 0
-56 15 38 0
-57 16 38 0
-58 17 38 0
-59 18 38 0
-60 19 38 0
-61 20 38 0
-62 21 38 0
-63 22 38 0
-64 23 38 0
-65 24 38 0
-66 25 38 0
-67 26 38 0
-68 27 38 0
-69 28 38 0
-70 29 38 0
-71 30 38 0
-72 31 38 0
-73 32 38 0
-74 33 38 0
-75 34 38 0
-76 35 38 0
-77 36 38 0
-78 37 38 0
-88 47 79 0
-89 48 79 0
-90 49 79 0
-91 50 79 0
-92 51 79 0
-93 52 79 0
-94 53 79 0
-95 54 79 0
-96 55 79 0
-97 56 79 0
-98 57 79 0
-99 58 79 0
-100 59 79 0
-101 60 79 0
-102 61 79 0
-103 62 79 0
-104 63 79 0
-105 64 79 0
-106 65 79 0
-107 66 79 0
-108 67 79 0
-109 68 79 0
-110 69 79 0
-111 70 79 0
-112 71 79 0
-113 72 79 0
-114 73 79 0
-115 74 79 0
-116 75 79 0
-117 76 79 0
-118 77 79 0
-119 78 79 0
-129 88 120 0
-130 89 120 0
-131 90 120 0
-132 91 120 0
-133 92 120 0
-134 93 120 0
-135 94 120 0
-136 95 120 0
-137 96 120 0
-138 97 120 0
-139 98 120 0
-140 99 120 0
-141 100 120 0
-142 101 120 0
-143 102 120 0
-144 103 120 0
-145 104 120 0
-146 105 120 0
-147 106 120 0
-148 107 120 0
-149 108 120 0
-150 109 120 0
-151 110 120 0
-152 111 120 0
-153 112 120 0
-154 113 120 0
-155 114 120 0
-156 115 120 0
-157 116 120 0
-158 117 120 0
-159 118 120 0
-160 119 120 0
-170 129 161 0
-171 130 161 0
-172 131 161 0
-173 132 161 0
-174 133 161 0
-175 134 161 0
-176 135 161 0
-177 136 161 0
-178 137 161 0
-179 138 161 0
-180 139 161 0
-181 140 161 0
-182 141 161 0
-183 142 161 0
-184 143 161 0
-185 144 161 0
-186 145 161 0
-187 146 161 0
-188 147 161 0
-189 148 161 0
-190 149 161 0
-191 150 161 0
-192 151 161 0
-193 152 161 0
-194 153 161 0
-195 154 161 0
-196 155 161 0
-197 156 161 0
-198 157 161 0
-199 158 161 0
-200 159 161 0
-201 160 161 0
-211 170 202 0
-212 171 202 0
-213 172 202 0
-214 173 202 0
-215 174 202 0
-216 175 202 0
-217 176 202 0
-218 177 202 0
-219 178 202 0
-220 179 202 0
-221 180 202 0
-222 181 202 0
-223 182 202 0
-224 183 202 0
-225 184 202 0
-226 185 202 0
-227 186 202 0
-228 187 202 0
-229 188 202 0
-230 189 202 0
-231 190 202 0
-232 191 202 0
-233 192 202 0
-234 193 202 0
-235 194 202 0
-236 195 202 0
-237 196 202 0
-238 197 202 0
-239 198 202 0
-240 199 202 0
-241 200 202 0
-242 201 202 0
-252 211 243 0
-253 212 243 0
-254 213 243 0
-255 214 243 0
-256 215 243 0
-257 216 243 0
-258 217 243 0
-259 218 243 0
-260 219 243 0
-261 220 243 0
-262 221 243 0
-263 222 243 0
-264 223 243 0
-265 224 243 0
-266 225 243 0
-267 226 243 0
-268 227 243 0
-269 228 243 0
-270 229 243 0
-271 230 243 0
-272 231 243 0
-273 232 243 0
-274 233 243 0
-275 234 243 0
-276 235 243 0
-277 236 243 0
-278 237 243 0
-279 238 243 0
-280 239 243 0
-281 240 243 0
-282 241 243 0
-283 242 243 0
-293 252 284 0
-294 253 284 0
-295 254 284 0
-296 255 284 0
-297 256 284 0
-298 257 284 0
-299 258 284 0
-300 259 284 0
-301 260 284 0
-302 261 284 0
-303 262 284 0
-304 263 284 0
-305 264 284 0
-306 265 284 0
-307 266 284 0
-308 267 284 0
-309 268 284 0
-310 269 284 0
-311 270 284 0
-312 271 284 0
-313 272 284 0
-314 273 284 0
-315 274 284 0
-316 275 284 0
-317 276 284 0
-318 277 284 0
-319 278 284 0
-320 279 284 0
-321 280 284 0
-322 281 284 0
-323 282 284 0
-324 283 284 0
325 326 327 328 329 330 331 332 333 334 335 336 337 338 339 340 0
-325 293 0
-325 301 0
-325 309 0
-326 293 0
-326 295 0
-326 297 0
-327 295 0
-327 303 0
-327 311 0
-328 295 0
-328 297 0
-328 299 0
-329 297 0
-329 305 0
-329 313 0
-330 299 0
-330 307 0
-330 315 0
-331 301 0
-331 309 0
-331 317 0
-332 301 0
-332 303 0
-332 305 0
-333 303 0
-333 311 0
-333 319 0
-334 303 0
-334 305 0
-334 307 0
-335 305 0
-335 313 0
-335 321 0
-336 307 0
-336 315 0
-336 323 0
-337 309 0
-337 311 0
-337 313 0
-338 311 0
-338 313 0
-338 315 0
-339 317 0
-339 319 0
-339 321 0
-340 319 0
-340 321 0
-340 323 0
-309 -301 -293 325 0
-297 -295 -293 326 0
-311 -303 -295 327 0
-299 -297 -295 328 0
-313 -305 -297 329 0
-315 -307 -299 330 0
-317 -309 -301 331 0
-305 -303 -301 332 0
-319 -311 -303 333 0
-307 -305 -303 334 0
-321 -313 -305 335 0
-323 -315 -307 336 0
-313 -311 -309 337 0
-315 -313 -311 338 0
-321 -319 -317 339 0
-323 -321 -319 340 0
-310 -302 -294 0
-298 -296 -294 0
-312 -304 -296 0
-300 -298 -296 0
-314 -306 -298 0
-316 -308 -300 0
-318 -310 -302 0
-306 -304 -302 0
-320 -312 -304 0
-308 -306 -304 0
-322 -314 -306 0
-324 -316 -308 0
-314 -312 -310 0
-316 -314 -312 0
-322 -320 -318 0
-324 -322 -320 0
